p wcnf 164 194 195 
1 140 80 0 
1 -114 27 0 
1 31 36 0 
1 -148 152 0 
1 -156 -143 0 
1 -12 -28 0 
1 149 -47 0 
1 132 116 0 
1 27 -143 0 
1 -46 -66 0 
1 -5 29 0 
1 93 -86 0 
1 -113 -109 0 
1 -87 -158 0 
1 -96 132 0 
1 -121 161 0 
1 -124 -64 0 
1 -59 -141 0 
1 -163 133 0 
1 -31 156 0 
1 29 -42 0 
1 -153 -95 0 
1 -99 24 0 
1 88 -155 0 
1 -88 68 0 
1 65 6 0 
1 -67 -88 0 
1 -126 105 0 
1 157 -112 0 
1 34 78 0 
1 -60 1 0 
1 -96 -20 0 
1 -52 164 0 
1 -146 5 0 
1 96 75 0 
1 -122 63 0 
1 153 -28 0 
1 -77 -43 0 
1 -89 27 0 
1 145 44 0 
1 9 -112 0 
1 -22 15 0 
1 97 -35 0 
1 -149 -55 0 
1 -152 -100 0 
1 50 160 0 
1 33 118 0 
1 -78 41 0 
1 -36 -113 0 
1 -85 96 0 
1 114 -107 0 
1 34 33 0 
1 -26 88 0 
1 -108 -150 0 
1 -51 32 0 
1 -58 137 0 
1 -90 123 0 
1 102 35 0 
1 38 -81 0 
1 -44 80 0 
1 -144 60 0 
1 -122 22 0 
1 74 -71 0 
1 87 -53 0 
1 13 -98 0 
1 90 67 0 
1 61 27 0 
1 159 79 0 
1 29 69 0 
1 -136 133 0 
1 -84 -154 0 
1 103 45 0 
1 -54 36 0 
1 -54 73 0 
1 -11 -52 0 
1 131 114 0 
1 18 112 0 
1 -153 8 0 
1 -18 21 0 
1 -98 -107 0 
1 -43 -136 0 
1 93 -152 0 
1 86 -111 0 
1 141 101 0 
1 109 14 0 
1 -15 -152 0 
1 137 76 0 
1 65 36 0 
1 -41 -163 0 
1 55 137 0 
1 79 -128 0 
1 -120 -107 0 
1 -155 71 0 
1 -123 155 0 
1 20 -145 0 
1 -83 159 0 
1 -73 141 0 
1 -65 110 0 
1 161 2 0 
1 -107 159 0 
1 -47 -49 0 
1 -47 93 0 
1 -66 84 0 
1 -119 -28 0 
1 -131 70 0 
1 147 -132 0 
1 -43 156 0 
1 100 156 0 
1 40 -35 0 
1 -89 50 0 
1 128 -158 0 
1 -91 -159 0 
1 34 98 0 
1 -68 -101 0 
1 147 -136 0 
1 -114 -99 0 
1 125 -15 0 
1 -14 43 0 
1 -88 140 0 
1 48 -52 0 
1 -85 -20 0 
1 69 4 0 
1 36 51 0 
1 65 53 0 
1 23 106 0 
1 34 65 0 
1 -145 -121 0 
1 135 51 0 
1 -89 159 0 
1 -37 -131 0 
1 115 -47 0 
1 -64 -91 0 
1 -27 -19 0 
1 -104 12 0 
1 121 63 0 
1 -46 -31 0 
1 -96 -133 0 
1 85 37 0 
1 -72 49 0 
1 -152 -52 0 
1 116 -43 0 
1 -105 120 0 
1 146 -147 0 
1 14 -30 0 
1 -25 -40 0 
1 93 42 0 
1 110 -149 0 
1 120 118 0 
1 61 29 0 
1 77 -163 0 
1 -38 -68 0 
1 51 -75 0 
1 -106 127 0 
1 -83 57 0 
1 73 -106 0 
1 16 -13 0 
1 -9 -62 0 
1 13 75 0 
1 38 -41 0 
1 -5 -12 0 
1 -72 163 0 
1 97 61 0 
1 -15 -118 0 
1 -13 -65 0 
1 12 -106 0 
1 138 -66 0 
1 123 -96 0 
1 -106 -54 0 
1 -34 10 0 
1 -51 70 0 
1 41 106 0 
1 -83 -164 0 
1 -59 -51 0 
1 62 96 0 
1 -35 77 0 
1 -32 -12 0 
1 18 27 0 
1 -118 -128 0 
1 -66 -114 0 
1 76 -103 0 
1 90 -64 0 
1 12 -55 0 
1 23 143 0 
1 142 86 0 
1 28 -150 0 
1 -142 152 0 
1 -43 57 0 
1 -27 -59 0 
1 -121 -7 0 
1 110 50 0 
1 -33 65 0 
1 90 133 0 
1 89 -15 0 
1 -99 -51 0 
